NAME : X-n837-k142
COMMENT : "Generated by Uchoa, Pecin, Pessoa, Poggi, Subramanian, and Vidal (2013)"
TYPE : CVRP
DIMENSION : 837
EDGE_WEIGHT_TYPE : EUC_2D
CAPACITY : 44
NODE_COORD_SECTION
1 940 231
2 721 848
3 618 44
4 993 145
5 636 512
6 274 496
7 245 945
8 449 812
9 29 650
10 399 8
11 548 19
12 769 717
13 221 850
14 980 233
15 477 922
16 498 720
17 136 832
18 351 663
19 58 67
20 889 569
21 28 334
22 804 928
23 900 138
24 393 403
25 982 609
26 79 299
27 684 582
28 169 252
29 405 925
30 875 191
31 674 112
32 576 537
33 539 63
34 338 657
35 210 209
36 676 568
37 949 826
38 572 890
39 210 615
40 737 46
41 30 527
42 131 724
43 671 842
44 727 566
45 507 497
46 524 134
47 167 665
48 819 108
49 929 582
50 713 738
51 352 626
52 887 547
53 176 645
54 611 289
55 457 532
56 11 147
57 958 60
58 587 187
59 790 956
60 974 63
61 306 225
62 961 969
63 238 736
64 758 840
65 88 44
66 507 811
67 768 476
68 51 914
69 494 445
70 953 33
71 922 45
72 748 111
73 544 867
74 477 596
75 322 79
76 439 150
77 586 764
78 214 599
79 168 480
80 925 138
81 797 107
82 751 783
83 738 913
84 703 73
85 681 886
86 627 27
87 887 310
88 478 345
89 571 600
90 834 858
91 549 370
92 657 233
93 126 769
94 317 934
95 237 55
96 851 409
97 838 426
98 477 559
99 542 94
100 370 432
101 520 621
102 666 178
103 631 484
104 733 255
105 820 918
106 687 877
107 752 983
108 157 720
109 709 898
110 300 878
111 728 617
112 66 59
113 991 657
114 717 47
115 463 177
116 586 397
117 792 307
118 100 392
119 438 722
120 43 247
121 71 476
122 69 560
123 211 73
124 471 14
125 115 806
126 194 337
127 921 320
128 104 495
129 36 456
130 500 152
131 782 316
132 881 374
133 277 601
134 962 575
135 588 181
136 941 728
137 108 931
138 11 814
139 209 800
140 129 525
141 126 149
142 31 219
143 97 324
144 495 122
145 759 480
146 859 782
147 780 669
148 786 769
149 759 159
150 282 633
151 361 17
152 957 103
153 711 939
154 544 544
155 27 318
156 665 656
157 523 586
158 842 429
159 539 783
160 769 347
161 937 386
162 824 841
163 738 391
164 833 988
165 16 637
166 91 472
167 41 388
168 623 780
169 660 155
170 700 658
171 946 783
172 607 815
173 87 771
174 658 874
175 527 853
176 459 577
177 352 829
178 427 235
179 937 639
180 554 438
181 833 692
182 421 999
183 908 447
184 469 163
185 737 238
186 509 61
187 246 352
188 488 408
189 600 359
190 510 460
191 342 691
192 95 216
193 787 465
194 700 873
195 659 568
196 478 525
197 988 980
198 303 119
199 241 353
200 28 661
201 724 842
202 2 660
203 210 180
204 840 841
205 843 9
206 430 92
207 265 453
208 209 673
209 20 952
210 673 659
211 185 335
212 138 655
213 263 155
214 769 741
215 325 260
216 831 678
217 401 625
218 212 360
219 118 426
220 192 520
221 596 376
222 449 679
223 579 295
224 333 352
225 837 944
226 377 500
227 797 97
228 65 235
229 440 877
230 849 769
231 439 326
232 407 621
233 550 241
234 169 68
235 253 243
236 76 852
237 642 116
238 598 124
239 564 374
240 997 660
241 14 98
242 845 303
243 774 9
244 791 671
245 299 800
246 575 109
247 865 708
248 290 897
249 953 348
250 906 692
251 895 790
252 25 242
253 761 886
254 909 336
255 501 846
256 731 4
257 337 71
258 106 973
259 400 229
260 846 368
261 623 580
262 978 669
263 884 559
264 10 910
265 390 602
266 451 134
267 324 221
268 569 98
269 735 341
270 411 220
271 672 867
272 69 790
273 584 520
274 193 416
275 954 912
276 761 734
277 192 875
278 88 353
279 777 38
280 98 68
281 642 658
282 838 305
283 824 694
284 238 825
285 344 138
286 137 683
287 357 593
288 541 423
289 537 99
290 137 539
291 719 213
292 68 173
293 788 339
294 939 69
295 826 300
296 86 779
297 492 174
298 96 108
299 674 364
300 566 830
301 371 935
302 119 629
303 840 180
304 678 310
305 979 466
306 970 249
307 975 291
308 298 94
309 192 630
310 560 724
311 310 503
312 506 445
313 720 806
314 259 450
315 156 388
316 81 518
317 597 384
318 388 967
319 399 787
320 11 859
321 688 276
322 721 451
323 3 300
324 983 902
325 184 404
326 984 221
327 514 801
328 887 476
329 106 208
330 356 238
331 552 923
332 318 297
333 803 145
334 974 602
335 316 566
336 73 473
337 448 186
338 422 51
339 86 398
340 653 3
341 548 316
342 239 470
343 717 351
344 762 276
345 434 39
346 420 378
347 141 122
348 805 572
349 769 874
350 909 440
351 875 676
352 393 561
353 38 852
354 105 958
355 504 740
356 840 804
357 62 24
358 360 375
359 199 310
360 661 252
361 484 955
362 481 777
363 208 145
364 74 749
365 277 225
366 223 388
367 353 272
368 504 527
369 242 931
370 801 74
371 538 483
372 75 710
373 510 183
374 377 842
375 244 834
376 115 811
377 37 611
378 570 338
379 30 147
380 658 235
381 109 856
382 950 351
383 34 512
384 937 779
385 840 77
386 541 308
387 470 783
388 890 127
389 672 450
390 321 779
391 132 77
392 658 358
393 875 663
394 719 972
395 893 283
396 86 437
397 45 423
398 119 237
399 199 550
400 221 723
401 613 950
402 357 566
403 582 795
404 815 464
405 329 481
406 223 90
407 144 199
408 819 300
409 778 769
410 960 581
411 73 711
412 891 760
413 869 582
414 762 952
415 129 544
416 891 765
417 341 202
418 279 754
419 152 677
420 381 124
421 262 932
422 114 684
423 563 354
424 128 42
425 527 584
426 322 73
427 562 370
428 392 609
429 402 184
430 407 91
431 269 94
432 736 268
433 598 496
434 292 92
435 108 661
436 433 748
437 331 889
438 240 788
439 536 312
440 341 127
441 258 809
442 519 923
443 326 931
444 391 274
445 117 800
446 353 801
447 202 115
448 323 190
449 44 588
450 326 102
451 446 362
452 469 593
453 117 93
454 764 469
455 595 304
456 511 582
457 552 544
458 267 814
459 355 95
460 82 52
461 505 535
462 289 40
463 232 30
464 234 71
465 397 107
466 339 189
467 296 920
468 39 226
469 348 79
470 513 307
471 528 254
472 333 16
473 382 971
474 369 93
475 532 444
476 451 579
477 380 524
478 64 69
479 95 739
480 483 514
481 750 328
482 258 106
483 497 64
484 286 695
485 248 949
486 375 378
487 465 221
488 665 270
489 366 0
490 254 885
491 262 90
492 237 52
493 573 528
494 355 35
495 326 743
496 147 77
497 557 337
498 120 742
499 247 1
500 542 619
501 352 892
502 366 80
503 91 80
504 538 87
505 902 274
506 654 479
507 313 817
508 106 673
509 195 998
510 115 52
511 364 134
512 274 243
513 57 711
514 174 77
515 78 697
516 390 168
517 213 892
518 128 133
519 449 314
520 556 888
521 321 786
522 600 669
523 412 125
524 324 50
525 342 957
526 286 100
527 430 128
528 207 933
529 468 125
530 175 709
531 118 633
532 162 859
533 51 47
534 53 761
535 316 25
536 134 680
537 442 125
538 616 462
539 444 691
540 40 840
541 464 616
542 127 21
543 285 942
544 79 85
545 164 732
546 802 300
547 601 607
548 310 162
549 340 363
550 133 689
551 414 154
552 77 257
553 413 193
554 964 400
555 410 533
556 461 585
557 134 80
558 298 981
559 410 716
560 181 164
561 150 224
562 446 55
563 102 676
564 241 697
565 395 26
566 441 90
567 451 196
568 136 5
569 392 113
570 270 851
571 507 75
572 398 622
573 312 43
574 352 730
575 305 69
576 322 743
577 349 122
578 395 83
579 387 251
580 105 616
581 355 120
582 751 566
583 249 494
584 209 637
585 79 699
586 345 960
587 413 673
588 130 914
589 274 911
590 780 402
591 140 61
592 482 279
593 246 922
594 282 106
595 356 96
596 245 939
597 484 170
598 542 595
599 370 97
600 331 165
601 534 437
602 139 685
603 780 618
604 689 306
605 22 4
606 436 370
607 304 987
608 171 660
609 764 567
610 594 247
611 255 840
612 495 395
613 579 590
614 86 560
615 378 926
616 114 692
617 540 352
618 249 45
619 601 470
620 723 669
621 457 108
622 367 181
623 77 759
624 289 292
625 136 898
626 213 165
627 455 745
628 278 80
629 642 706
630 608 601
631 556 353
632 515 475
633 263 868
634 186 643
635 443 30
636 246 21
637 634 512
638 655 385
639 144 764
640 693 342
641 460 151
642 555 359
643 327 83
644 345 249
645 115 82
646 530 192
647 114 674
648 213 657
649 597 751
650 277 98
651 518 599
652 275 32
653 414 97
654 324 43
655 102 914
656 603 302
657 480 125
658 189 49
659 561 541
660 424 174
661 542 198
662 276 191
663 263 655
664 468 282
665 199 7
666 336 851
667 59 564
668 521 545
669 516 627
670 554 621
671 313 731
672 300 98
673 412 189
674 242 77
675 201 388
676 371 154
677 503 99
678 384 327
679 512 898
680 283 59
681 278 136
682 375 11
683 339 132
684 318 181
685 482 548
686 137 621
687 67 799
688 620 405
689 45 758
690 155 793
691 249 50
692 205 733
693 559 485
694 386 122
695 554 130
696 599 693
697 365 919
698 544 449
699 297 100
700 355 64
701 38 710
702 473 164
703 34 929
704 150 787
705 543 575
706 178 253
707 690 409
708 55 99
709 242 68
710 535 315
711 230 108
712 112 800
713 195 119
714 519 123
715 255 885
716 283 58
717 346 372
718 55 79
719 470 430
720 109 474
721 121 716
722 46 87
723 276 162
724 292 10
725 388 31
726 627 292
727 105 831
728 84 724
729 196 879
730 136 70
731 70 101
732 462 77
733 182 429
734 644 337
735 461 727
736 611 551
737 250 928
738 330 168
739 605 605
740 116 708
741 257 883
742 593 306
743 335 249
744 113 146
745 371 178
746 631 430
747 397 76
748 251 203
749 349 223
750 348 93
751 549 148
752 99 354
753 65 569
754 446 265
755 218 903
756 174 66
757 363 182
758 571 482
759 599 697
760 546 563
761 294 994
762 283 42
763 197 184
764 316 899
765 603 611
766 792 373
767 182 925
768 240 583
769 142 783
770 684 693
771 269 748
772 646 519
773 268 693
774 213 33
775 111 771
776 61 608
777 246 114
778 658 591
779 370 288
780 312 448
781 210 48
782 679 342
783 180 107
784 367 111
785 539 169
786 18 18
787 248 946
788 565 83
789 198 787
790 518 10
791 71 769
792 554 356
793 64 665
794 301 987
795 219 644
796 637 463
797 415 133
798 190 59
799 301 863
800 747 120
801 274 803
802 422 236
803 389 133
804 469 369
805 591 776
806 241 902
807 657 311
808 375 17
809 393 64
810 496 587
811 332 242
812 571 590
813 236 921
814 554 485
815 439 545
816 114 190
817 324 21
818 656 228
819 526 747
820 340 132
821 202 580
822 75 668
823 238 966
824 513 551
825 163 299
826 141 898
827 306 117
828 264 956
829 575 460
830 95 725
831 60 249
832 415 82
833 667 557
834 266 960
835 567 423
836 348 955
837 345 144
PICKUP_AND_DELIVERY_SECTION
1 0 0 1000000000 0 0 0
2 0 0 1000000000 0 0 7
3 0 0 1000000000 0 0 9
4 0 0 1000000000 0 0 6
5 0 0 1000000000 0 0 7
6 0 0 1000000000 0 0 6
7 0 0 1000000000 0 0 8
8 0 0 1000000000 0 0 9
9 0 0 1000000000 0 0 5
10 0 0 1000000000 0 0 8
11 0 0 1000000000 0 10 0
12 0 0 1000000000 0 0 7
13 0 0 1000000000 0 0 5
14 0 0 1000000000 0 0 7
15 0 0 1000000000 0 0 10
16 0 0 1000000000 0 0 6
17 0 0 1000000000 0 0 5
18 0 0 1000000000 0 0 5
19 0 0 1000000000 0 0 7
20 0 0 1000000000 0 0 6
21 0 0 1000000000 0 10 0
22 0 0 1000000000 0 0 8
23 0 0 1000000000 0 0 10
24 0 0 1000000000 0 0 9
25 0 0 1000000000 0 0 6
26 0 0 1000000000 0 0 10
27 0 0 1000000000 0 0 10
28 0 0 1000000000 0 0 10
29 0 0 1000000000 0 0 10
30 0 0 1000000000 0 0 5
31 0 0 1000000000 0 7 0
32 0 0 1000000000 0 0 8
33 0 0 1000000000 0 0 9
34 0 0 1000000000 0 0 5
35 0 0 1000000000 0 0 7
36 0 0 1000000000 0 0 10
37 0 0 1000000000 0 0 9
38 0 0 1000000000 0 0 6
39 0 0 1000000000 0 0 7
40 0 0 1000000000 0 0 6
41 0 0 1000000000 0 7 0
42 0 0 1000000000 0 0 7
43 0 0 1000000000 0 0 9
44 0 0 1000000000 0 0 6
45 0 0 1000000000 0 0 8
46 0 0 1000000000 0 0 6
47 0 0 1000000000 0 0 5
48 0 0 1000000000 0 0 7
49 0 0 1000000000 0 0 6
50 0 0 1000000000 0 0 7
51 0 0 1000000000 0 6 0
52 0 0 1000000000 0 0 10
53 0 0 1000000000 0 0 6
54 0 0 1000000000 0 0 7
55 0 0 1000000000 0 0 6
56 0 0 1000000000 0 0 7
57 0 0 1000000000 0 0 5
58 0 0 1000000000 0 0 6
59 0 0 1000000000 0 0 9
60 0 0 1000000000 0 0 7
61 0 0 1000000000 0 7 0
62 0 0 1000000000 0 0 8
63 0 0 1000000000 0 0 9
64 0 0 1000000000 0 0 10
65 0 0 1000000000 0 0 10
66 0 0 1000000000 0 0 8
67 0 0 1000000000 0 0 8
68 0 0 1000000000 0 0 5
69 0 0 1000000000 0 0 9
70 0 0 1000000000 0 0 9
71 0 0 1000000000 0 10 0
72 0 0 1000000000 0 0 9
73 0 0 1000000000 0 0 7
74 0 0 1000000000 0 0 10
75 0 0 1000000000 0 0 5
76 0 0 1000000000 0 0 5
77 0 0 1000000000 0 0 10
78 0 0 1000000000 0 0 8
79 0 0 1000000000 0 0 8
80 0 0 1000000000 0 0 10
81 0 0 1000000000 0 6 0
82 0 0 1000000000 0 0 6
83 0 0 1000000000 0 0 8
84 0 0 1000000000 0 0 8
85 0 0 1000000000 0 0 5
86 0 0 1000000000 0 0 9
87 0 0 1000000000 0 0 7
88 0 0 1000000000 0 0 8
89 0 0 1000000000 0 0 6
90 0 0 1000000000 0 0 6
91 0 0 1000000000 0 6 0
92 0 0 1000000000 0 0 9
93 0 0 1000000000 0 0 7
94 0 0 1000000000 0 0 10
95 0 0 1000000000 0 0 10
96 0 0 1000000000 0 0 10
97 0 0 1000000000 0 0 10
98 0 0 1000000000 0 0 7
99 0 0 1000000000 0 0 6
100 0 0 1000000000 0 0 8
101 0 0 1000000000 0 6 0
102 0 0 1000000000 0 0 8
103 0 0 1000000000 0 0 8
104 0 0 1000000000 0 0 10
105 0 0 1000000000 0 0 10
106 0 0 1000000000 0 0 7
107 0 0 1000000000 0 0 7
108 0 0 1000000000 0 0 9
109 0 0 1000000000 0 0 7
110 0 0 1000000000 0 0 10
111 0 0 1000000000 0 7 0
112 0 0 1000000000 0 0 5
113 0 0 1000000000 0 0 9
114 0 0 1000000000 0 0 5
115 0 0 1000000000 0 0 5
116 0 0 1000000000 0 0 9
117 0 0 1000000000 0 0 8
118 0 0 1000000000 0 0 7
119 0 0 1000000000 0 0 9
120 0 0 1000000000 0 0 5
121 0 0 1000000000 0 5 0
122 0 0 1000000000 0 0 8
123 0 0 1000000000 0 0 7
124 0 0 1000000000 0 0 9
125 0 0 1000000000 0 0 10
126 0 0 1000000000 0 0 10
127 0 0 1000000000 0 0 6
128 0 0 1000000000 0 0 8
129 0 0 1000000000 0 0 5
130 0 0 1000000000 0 0 10
131 0 0 1000000000 0 10 0
132 0 0 1000000000 0 0 10
133 0 0 1000000000 0 0 7
134 0 0 1000000000 0 0 9
135 0 0 1000000000 0 0 8
136 0 0 1000000000 0 0 7
137 0 0 1000000000 0 0 6
138 0 0 1000000000 0 0 7
139 0 0 1000000000 0 0 9
140 0 0 1000000000 0 0 9
141 0 0 1000000000 0 10 0
142 0 0 1000000000 0 0 8
143 0 0 1000000000 0 0 6
144 0 0 1000000000 0 0 10
145 0 0 1000000000 0 0 6
146 0 0 1000000000 0 0 7
147 0 0 1000000000 0 0 8
148 0 0 1000000000 0 0 5
149 0 0 1000000000 0 0 9
150 0 0 1000000000 0 0 6
151 0 0 1000000000 0 9 0
152 0 0 1000000000 0 0 7
153 0 0 1000000000 0 0 10
154 0 0 1000000000 0 0 8
155 0 0 1000000000 0 0 10
156 0 0 1000000000 0 0 5
157 0 0 1000000000 0 0 10
158 0 0 1000000000 0 0 8
159 0 0 1000000000 0 0 5
160 0 0 1000000000 0 0 10
161 0 0 1000000000 0 10 0
162 0 0 1000000000 0 0 8
163 0 0 1000000000 0 0 7
164 0 0 1000000000 0 0 8
165 0 0 1000000000 0 0 7
166 0 0 1000000000 0 0 5
167 0 0 1000000000 0 0 6
168 0 0 1000000000 0 0 10
169 0 0 1000000000 0 0 6
170 0 0 1000000000 0 0 6
171 0 0 1000000000 0 10 0
172 0 0 1000000000 0 0 10
173 0 0 1000000000 0 0 8
174 0 0 1000000000 0 0 6
175 0 0 1000000000 0 0 6
176 0 0 1000000000 0 0 9
177 0 0 1000000000 0 0 5
178 0 0 1000000000 0 0 7
179 0 0 1000000000 0 0 10
180 0 0 1000000000 0 0 6
181 0 0 1000000000 0 8 0
182 0 0 1000000000 0 0 6
183 0 0 1000000000 0 0 8
184 0 0 1000000000 0 0 7
185 0 0 1000000000 0 0 8
186 0 0 1000000000 0 0 8
187 0 0 1000000000 0 0 8
188 0 0 1000000000 0 0 5
189 0 0 1000000000 0 0 8
190 0 0 1000000000 0 0 9
191 0 0 1000000000 0 8 0
192 0 0 1000000000 0 0 7
193 0 0 1000000000 0 0 5
194 0 0 1000000000 0 0 8
195 0 0 1000000000 0 0 9
196 0 0 1000000000 0 0 8
197 0 0 1000000000 0 0 5
198 0 0 1000000000 0 0 8
199 0 0 1000000000 0 0 10
200 0 0 1000000000 0 0 5
201 0 0 1000000000 0 5 0
202 0 0 1000000000 0 0 6
203 0 0 1000000000 0 0 8
204 0 0 1000000000 0 0 9
205 0 0 1000000000 0 0 6
206 0 0 1000000000 0 0 9
207 0 0 1000000000 0 0 7
208 0 0 1000000000 0 0 8
209 0 0 1000000000 0 0 5
210 0 0 1000000000 0 0 9
211 0 0 1000000000 0 10 0
212 0 0 1000000000 0 0 10
213 0 0 1000000000 0 0 6
214 0 0 1000000000 0 0 7
215 0 0 1000000000 0 0 7
216 0 0 1000000000 0 0 8
217 0 0 1000000000 0 0 8
218 0 0 1000000000 0 0 5
219 0 0 1000000000 0 0 5
220 0 0 1000000000 0 0 9
221 0 0 1000000000 0 10 0
222 0 0 1000000000 0 0 6
223 0 0 1000000000 0 0 6
224 0 0 1000000000 0 0 5
225 0 0 1000000000 0 0 10
226 0 0 1000000000 0 0 9
227 0 0 1000000000 0 0 8
228 0 0 1000000000 0 0 7
229 0 0 1000000000 0 0 7
230 0 0 1000000000 0 0 10
231 0 0 1000000000 0 9 0
232 0 0 1000000000 0 0 9
233 0 0 1000000000 0 0 8
234 0 0 1000000000 0 0 5
235 0 0 1000000000 0 0 7
236 0 0 1000000000 0 0 10
237 0 0 1000000000 0 0 5
238 0 0 1000000000 0 0 6
239 0 0 1000000000 0 0 7
240 0 0 1000000000 0 0 9
241 0 0 1000000000 0 7 0
242 0 0 1000000000 0 0 9
243 0 0 1000000000 0 0 5
244 0 0 1000000000 0 0 9
245 0 0 1000000000 0 0 8
246 0 0 1000000000 0 0 7
247 0 0 1000000000 0 0 8
248 0 0 1000000000 0 0 9
249 0 0 1000000000 0 0 7
250 0 0 1000000000 0 0 7
251 0 0 1000000000 0 7 0
252 0 0 1000000000 0 0 9
253 0 0 1000000000 0 0 9
254 0 0 1000000000 0 0 5
255 0 0 1000000000 0 0 5
256 0 0 1000000000 0 0 5
257 0 0 1000000000 0 0 5
258 0 0 1000000000 0 0 5
259 0 0 1000000000 0 0 8
260 0 0 1000000000 0 0 9
261 0 0 1000000000 0 8 0
262 0 0 1000000000 0 0 7
263 0 0 1000000000 0 0 5
264 0 0 1000000000 0 0 5
265 0 0 1000000000 0 0 5
266 0 0 1000000000 0 0 9
267 0 0 1000000000 0 0 7
268 0 0 1000000000 0 0 5
269 0 0 1000000000 0 0 5
270 0 0 1000000000 0 0 7
271 0 0 1000000000 0 7 0
272 0 0 1000000000 0 0 7
273 0 0 1000000000 0 0 5
274 0 0 1000000000 0 0 9
275 0 0 1000000000 0 0 8
276 0 0 1000000000 0 0 7
277 0 0 1000000000 0 0 9
278 0 0 1000000000 0 0 7
279 0 0 1000000000 0 0 7
280 0 0 1000000000 0 0 6
281 0 0 1000000000 0 7 0
282 0 0 1000000000 0 0 5
283 0 0 1000000000 0 0 5
284 0 0 1000000000 0 0 7
285 0 0 1000000000 0 0 6
286 0 0 1000000000 0 0 6
287 0 0 1000000000 0 0 8
288 0 0 1000000000 0 0 7
289 0 0 1000000000 0 0 5
290 0 0 1000000000 0 0 6
291 0 0 1000000000 0 8 0
292 0 0 1000000000 0 0 6
293 0 0 1000000000 0 0 7
294 0 0 1000000000 0 0 8
295 0 0 1000000000 0 0 6
296 0 0 1000000000 0 0 6
297 0 0 1000000000 0 0 5
298 0 0 1000000000 0 0 5
299 0 0 1000000000 0 0 6
300 0 0 1000000000 0 0 5
301 0 0 1000000000 0 6 0
302 0 0 1000000000 0 0 7
303 0 0 1000000000 0 0 8
304 0 0 1000000000 0 0 7
305 0 0 1000000000 0 0 5
306 0 0 1000000000 0 0 5
307 0 0 1000000000 0 0 10
308 0 0 1000000000 0 0 8
309 0 0 1000000000 0 0 9
310 0 0 1000000000 0 0 5
311 0 0 1000000000 0 6 0
312 0 0 1000000000 0 0 6
313 0 0 1000000000 0 0 7
314 0 0 1000000000 0 0 6
315 0 0 1000000000 0 0 10
316 0 0 1000000000 0 0 8
317 0 0 1000000000 0 0 8
318 0 0 1000000000 0 0 7
319 0 0 1000000000 0 0 10
320 0 0 1000000000 0 0 8
321 0 0 1000000000 0 7 0
322 0 0 1000000000 0 0 8
323 0 0 1000000000 0 0 7
324 0 0 1000000000 0 0 7
325 0 0 1000000000 0 0 6
326 0 0 1000000000 0 0 8
327 0 0 1000000000 0 0 8
328 0 0 1000000000 0 0 8
329 0 0 1000000000 0 0 6
330 0 0 1000000000 0 0 5
331 0 0 1000000000 0 8 0
332 0 0 1000000000 0 0 6
333 0 0 1000000000 0 0 8
334 0 0 1000000000 0 0 10
335 0 0 1000000000 0 0 5
336 0 0 1000000000 0 0 6
337 0 0 1000000000 0 0 7
338 0 0 1000000000 0 0 7
339 0 0 1000000000 0 0 10
340 0 0 1000000000 0 0 10
341 0 0 1000000000 0 9 0
342 0 0 1000000000 0 0 7
343 0 0 1000000000 0 0 6
344 0 0 1000000000 0 0 10
345 0 0 1000000000 0 0 9
346 0 0 1000000000 0 0 8
347 0 0 1000000000 0 0 10
348 0 0 1000000000 0 0 5
349 0 0 1000000000 0 0 8
350 0 0 1000000000 0 0 8
351 0 0 1000000000 0 7 0
352 0 0 1000000000 0 0 7
353 0 0 1000000000 0 0 9
354 0 0 1000000000 0 0 7
355 0 0 1000000000 0 0 10
356 0 0 1000000000 0 0 5
357 0 0 1000000000 0 0 10
358 0 0 1000000000 0 0 5
359 0 0 1000000000 0 0 5
360 0 0 1000000000 0 0 5
361 0 0 1000000000 0 6 0
362 0 0 1000000000 0 0 8
363 0 0 1000000000 0 0 8
364 0 0 1000000000 0 0 7
365 0 0 1000000000 0 0 6
366 0 0 1000000000 0 0 9
367 0 0 1000000000 0 0 8
368 0 0 1000000000 0 0 10
369 0 0 1000000000 0 0 7
370 0 0 1000000000 0 0 10
371 0 0 1000000000 0 8 0
372 0 0 1000000000 0 0 10
373 0 0 1000000000 0 0 7
374 0 0 1000000000 0 0 7
375 0 0 1000000000 0 0 8
376 0 0 1000000000 0 0 6
377 0 0 1000000000 0 0 5
378 0 0 1000000000 0 0 7
379 0 0 1000000000 0 0 8
380 0 0 1000000000 0 0 6
381 0 0 1000000000 0 7 0
382 0 0 1000000000 0 0 9
383 0 0 1000000000 0 0 7
384 0 0 1000000000 0 0 5
385 0 0 1000000000 0 0 7
386 0 0 1000000000 0 0 6
387 0 0 1000000000 0 0 9
388 0 0 1000000000 0 0 10
389 0 0 1000000000 0 0 8
390 0 0 1000000000 0 0 5
391 0 0 1000000000 0 6 0
392 0 0 1000000000 0 0 10
393 0 0 1000000000 0 0 6
394 0 0 1000000000 0 0 8
395 0 0 1000000000 0 0 8
396 0 0 1000000000 0 0 7
397 0 0 1000000000 0 0 6
398 0 0 1000000000 0 0 5
399 0 0 1000000000 0 0 5
400 0 0 1000000000 0 0 8
401 0 0 1000000000 0 7 0
402 0 0 1000000000 0 0 5
403 0 0 1000000000 0 0 6
404 0 0 1000000000 0 0 7
405 0 0 1000000000 0 0 5
406 0 0 1000000000 0 0 10
407 0 0 1000000000 0 0 10
408 0 0 1000000000 0 0 8
409 0 0 1000000000 0 0 9
410 0 0 1000000000 0 0 5
411 0 0 1000000000 0 5 0
412 0 0 1000000000 0 0 5
413 0 0 1000000000 0 0 10
414 0 0 1000000000 0 0 9
415 0 0 1000000000 0 0 5
416 0 0 1000000000 0 0 10
417 0 0 1000000000 0 0 5
418 0 0 1000000000 0 0 7
419 0 0 1000000000 0 0 9
420 0 0 1000000000 0 0 8
421 0 0 1000000000 0 5 0
422 0 0 1000000000 0 0 9
423 0 0 1000000000 0 0 7
424 0 0 1000000000 0 0 6
425 0 0 1000000000 0 0 5
426 0 0 1000000000 0 0 9
427 0 0 1000000000 0 0 9
428 0 0 1000000000 0 0 8
429 0 0 1000000000 0 0 7
430 0 0 1000000000 0 0 9
431 0 0 1000000000 0 5 0
432 0 0 1000000000 0 0 7
433 0 0 1000000000 0 0 6
434 0 0 1000000000 0 0 6
435 0 0 1000000000 0 0 6
436 0 0 1000000000 0 0 5
437 0 0 1000000000 0 0 9
438 0 0 1000000000 0 0 9
439 0 0 1000000000 0 0 6
440 0 0 1000000000 0 0 5
441 0 0 1000000000 0 7 0
442 0 0 1000000000 0 0 5
443 0 0 1000000000 0 0 9
444 0 0 1000000000 0 0 10
445 0 0 1000000000 0 0 7
446 0 0 1000000000 0 0 8
447 0 0 1000000000 0 0 9
448 0 0 1000000000 0 0 5
449 0 0 1000000000 0 0 6
450 0 0 1000000000 0 0 6
451 0 0 1000000000 0 8 0
452 0 0 1000000000 0 0 8
453 0 0 1000000000 0 0 8
454 0 0 1000000000 0 0 8
455 0 0 1000000000 0 0 9
456 0 0 1000000000 0 0 6
457 0 0 1000000000 0 0 5
458 0 0 1000000000 0 0 7
459 0 0 1000000000 0 0 7
460 0 0 1000000000 0 0 9
461 0 0 1000000000 0 5 0
462 0 0 1000000000 0 0 8
463 0 0 1000000000 0 0 8
464 0 0 1000000000 0 0 8
465 0 0 1000000000 0 0 7
466 0 0 1000000000 0 0 5
467 0 0 1000000000 0 0 10
468 0 0 1000000000 0 0 7
469 0 0 1000000000 0 0 6
470 0 0 1000000000 0 0 10
471 0 0 1000000000 0 10 0
472 0 0 1000000000 0 0 9
473 0 0 1000000000 0 0 9
474 0 0 1000000000 0 0 9
475 0 0 1000000000 0 0 8
476 0 0 1000000000 0 0 8
477 0 0 1000000000 0 0 9
478 0 0 1000000000 0 0 10
479 0 0 1000000000 0 0 9
480 0 0 1000000000 0 0 8
481 0 0 1000000000 0 7 0
482 0 0 1000000000 0 0 7
483 0 0 1000000000 0 0 6
484 0 0 1000000000 0 0 9
485 0 0 1000000000 0 0 5
486 0 0 1000000000 0 0 9
487 0 0 1000000000 0 0 8
488 0 0 1000000000 0 0 5
489 0 0 1000000000 0 0 10
490 0 0 1000000000 0 0 10
491 0 0 1000000000 0 10 0
492 0 0 1000000000 0 0 8
493 0 0 1000000000 0 0 5
494 0 0 1000000000 0 0 8
495 0 0 1000000000 0 0 5
496 0 0 1000000000 0 0 6
497 0 0 1000000000 0 0 6
498 0 0 1000000000 0 0 8
499 0 0 1000000000 0 0 6
500 0 0 1000000000 0 0 5
501 0 0 1000000000 0 10 0
502 0 0 1000000000 0 0 6
503 0 0 1000000000 0 0 5
504 0 0 1000000000 0 0 9
505 0 0 1000000000 0 0 10
506 0 0 1000000000 0 0 8
507 0 0 1000000000 0 0 7
508 0 0 1000000000 0 0 8
509 0 0 1000000000 0 0 10
510 0 0 1000000000 0 0 10
511 0 0 1000000000 0 6 0
512 0 0 1000000000 0 0 9
513 0 0 1000000000 0 0 6
514 0 0 1000000000 0 0 5
515 0 0 1000000000 0 0 7
516 0 0 1000000000 0 0 8
517 0 0 1000000000 0 0 8
518 0 0 1000000000 0 0 5
519 0 0 1000000000 0 0 5
520 0 0 1000000000 0 0 10
521 0 0 1000000000 0 10 0
522 0 0 1000000000 0 0 10
523 0 0 1000000000 0 0 8
524 0 0 1000000000 0 0 8
525 0 0 1000000000 0 0 7
526 0 0 1000000000 0 0 8
527 0 0 1000000000 0 0 9
528 0 0 1000000000 0 0 8
529 0 0 1000000000 0 0 8
530 0 0 1000000000 0 0 8
531 0 0 1000000000 0 10 0
532 0 0 1000000000 0 0 5
533 0 0 1000000000 0 0 8
534 0 0 1000000000 0 0 9
535 0 0 1000000000 0 0 6
536 0 0 1000000000 0 0 7
537 0 0 1000000000 0 0 10
538 0 0 1000000000 0 0 9
539 0 0 1000000000 0 0 10
540 0 0 1000000000 0 0 10
541 0 0 1000000000 0 10 0
542 0 0 1000000000 0 0 7
543 0 0 1000000000 0 0 8
544 0 0 1000000000 0 0 8
545 0 0 1000000000 0 0 5
546 0 0 1000000000 0 0 9
547 0 0 1000000000 0 0 10
548 0 0 1000000000 0 0 9
549 0 0 1000000000 0 0 5
550 0 0 1000000000 0 0 7
551 0 0 1000000000 0 9 0
552 0 0 1000000000 0 0 10
553 0 0 1000000000 0 0 10
554 0 0 1000000000 0 0 7
555 0 0 1000000000 0 0 6
556 0 0 1000000000 0 0 8
557 0 0 1000000000 0 0 6
558 0 0 1000000000 0 0 7
559 0 0 1000000000 0 0 10
560 0 0 1000000000 0 0 9
561 0 0 1000000000 0 8 0
562 0 0 1000000000 0 0 5
563 0 0 1000000000 0 0 9
564 0 0 1000000000 0 0 8
565 0 0 1000000000 0 0 6
566 0 0 1000000000 0 0 6
567 0 0 1000000000 0 0 8
568 0 0 1000000000 0 0 9
569 0 0 1000000000 0 0 9
570 0 0 1000000000 0 0 5
571 0 0 1000000000 0 10 0
572 0 0 1000000000 0 0 9
573 0 0 1000000000 0 0 5
574 0 0 1000000000 0 0 6
575 0 0 1000000000 0 0 5
576 0 0 1000000000 0 0 6
577 0 0 1000000000 0 0 7
578 0 0 1000000000 0 0 10
579 0 0 1000000000 0 0 7
580 0 0 1000000000 0 0 5
581 0 0 1000000000 0 9 0
582 0 0 1000000000 0 0 10
583 0 0 1000000000 0 0 8
584 0 0 1000000000 0 0 6
585 0 0 1000000000 0 0 6
586 0 0 1000000000 0 0 5
587 0 0 1000000000 0 0 10
588 0 0 1000000000 0 0 6
589 0 0 1000000000 0 0 8
590 0 0 1000000000 0 0 6
591 0 0 1000000000 0 9 0
592 0 0 1000000000 0 0 9
593 0 0 1000000000 0 0 5
594 0 0 1000000000 0 0 9
595 0 0 1000000000 0 0 8
596 0 0 1000000000 0 0 8
597 0 0 1000000000 0 0 5
598 0 0 1000000000 0 0 9
599 0 0 1000000000 0 0 7
600 0 0 1000000000 0 0 10
601 0 0 1000000000 0 7 0
602 0 0 1000000000 0 0 8
603 0 0 1000000000 0 0 6
604 0 0 1000000000 0 0 6
605 0 0 1000000000 0 0 5
606 0 0 1000000000 0 0 6
607 0 0 1000000000 0 0 5
608 0 0 1000000000 0 0 10
609 0 0 1000000000 0 0 5
610 0 0 1000000000 0 0 9
611 0 0 1000000000 0 9 0
612 0 0 1000000000 0 0 5
613 0 0 1000000000 0 0 8
614 0 0 1000000000 0 0 5
615 0 0 1000000000 0 0 5
616 0 0 1000000000 0 0 10
617 0 0 1000000000 0 0 8
618 0 0 1000000000 0 0 7
619 0 0 1000000000 0 0 7
620 0 0 1000000000 0 0 5
621 0 0 1000000000 0 7 0
622 0 0 1000000000 0 0 8
623 0 0 1000000000 0 0 9
624 0 0 1000000000 0 0 10
625 0 0 1000000000 0 0 7
626 0 0 1000000000 0 0 10
627 0 0 1000000000 0 0 5
628 0 0 1000000000 0 0 8
629 0 0 1000000000 0 0 5
630 0 0 1000000000 0 0 5
631 0 0 1000000000 0 10 0
632 0 0 1000000000 0 0 5
633 0 0 1000000000 0 0 6
634 0 0 1000000000 0 0 10
635 0 0 1000000000 0 0 8
636 0 0 1000000000 0 0 9
637 0 0 1000000000 0 0 6
638 0 0 1000000000 0 0 8
639 0 0 1000000000 0 0 8
640 0 0 1000000000 0 0 10
641 0 0 1000000000 0 7 0
642 0 0 1000000000 0 0 10
643 0 0 1000000000 0 0 9
644 0 0 1000000000 0 0 8
645 0 0 1000000000 0 0 7
646 0 0 1000000000 0 0 5
647 0 0 1000000000 0 0 8
648 0 0 1000000000 0 0 6
649 0 0 1000000000 0 0 6
650 0 0 1000000000 0 0 8
651 0 0 1000000000 0 5 0
652 0 0 1000000000 0 0 10
653 0 0 1000000000 0 0 9
654 0 0 1000000000 0 0 9
655 0 0 1000000000 0 0 10
656 0 0 1000000000 0 0 7
657 0 0 1000000000 0 0 6
658 0 0 1000000000 0 0 5
659 0 0 1000000000 0 0 6
660 0 0 1000000000 0 0 6
661 0 0 1000000000 0 6 0
662 0 0 1000000000 0 0 5
663 0 0 1000000000 0 0 8
664 0 0 1000000000 0 0 8
665 0 0 1000000000 0 0 9
666 0 0 1000000000 0 0 6
667 0 0 1000000000 0 0 9
668 0 0 1000000000 0 0 10
669 0 0 1000000000 0 0 6
670 0 0 1000000000 0 0 10
671 0 0 1000000000 0 6 0
672 0 0 1000000000 0 0 5
673 0 0 1000000000 0 0 10
674 0 0 1000000000 0 0 8
675 0 0 1000000000 0 0 5
676 0 0 1000000000 0 0 10
677 0 0 1000000000 0 0 8
678 0 0 1000000000 0 0 10
679 0 0 1000000000 0 0 5
680 0 0 1000000000 0 0 6
681 0 0 1000000000 0 10 0
682 0 0 1000000000 0 0 5
683 0 0 1000000000 0 0 5
684 0 0 1000000000 0 0 6
685 0 0 1000000000 0 0 8
686 0 0 1000000000 0 0 7
687 0 0 1000000000 0 0 10
688 0 0 1000000000 0 0 6
689 0 0 1000000000 0 0 5
690 0 0 1000000000 0 0 7
691 0 0 1000000000 0 8 0
692 0 0 1000000000 0 0 6
693 0 0 1000000000 0 0 8
694 0 0 1000000000 0 0 9
695 0 0 1000000000 0 0 7
696 0 0 1000000000 0 0 6
697 0 0 1000000000 0 0 7
698 0 0 1000000000 0 0 6
699 0 0 1000000000 0 0 8
700 0 0 1000000000 0 0 7
701 0 0 1000000000 0 8 0
702 0 0 1000000000 0 0 7
703 0 0 1000000000 0 0 10
704 0 0 1000000000 0 0 10
705 0 0 1000000000 0 0 5
706 0 0 1000000000 0 0 6
707 0 0 1000000000 0 0 8
708 0 0 1000000000 0 0 10
709 0 0 1000000000 0 0 10
710 0 0 1000000000 0 0 6
711 0 0 1000000000 0 5 0
712 0 0 1000000000 0 0 6
713 0 0 1000000000 0 0 5
714 0 0 1000000000 0 0 6
715 0 0 1000000000 0 0 6
716 0 0 1000000000 0 0 9
717 0 0 1000000000 0 0 5
718 0 0 1000000000 0 0 7
719 0 0 1000000000 0 0 8
720 0 0 1000000000 0 0 9
721 0 0 1000000000 0 7 0
722 0 0 1000000000 0 0 8
723 0 0 1000000000 0 0 5
724 0 0 1000000000 0 0 6
725 0 0 1000000000 0 0 5
726 0 0 1000000000 0 0 10
727 0 0 1000000000 0 0 10
728 0 0 1000000000 0 0 8
729 0 0 1000000000 0 0 10
730 0 0 1000000000 0 0 5
731 0 0 1000000000 0 9 0
732 0 0 1000000000 0 0 5
733 0 0 1000000000 0 0 10
734 0 0 1000000000 0 0 8
735 0 0 1000000000 0 0 6
736 0 0 1000000000 0 0 7
737 0 0 1000000000 0 0 8
738 0 0 1000000000 0 0 7
739 0 0 1000000000 0 0 6
740 0 0 1000000000 0 0 7
741 0 0 1000000000 0 7 0
742 0 0 1000000000 0 0 5
743 0 0 1000000000 0 0 9
744 0 0 1000000000 0 0 6
745 0 0 1000000000 0 0 6
746 0 0 1000000000 0 0 9
747 0 0 1000000000 0 0 5
748 0 0 1000000000 0 0 5
749 0 0 1000000000 0 0 6
750 0 0 1000000000 0 0 10
751 0 0 1000000000 0 8 0
752 0 0 1000000000 0 0 10
753 0 0 1000000000 0 0 9
754 0 0 1000000000 0 0 10
755 0 0 1000000000 0 0 7
756 0 0 1000000000 0 0 10
757 0 0 1000000000 0 0 5
758 0 0 1000000000 0 0 8
759 0 0 1000000000 0 0 5
760 0 0 1000000000 0 0 7
761 0 0 1000000000 0 8 0
762 0 0 1000000000 0 0 7
763 0 0 1000000000 0 0 5
764 0 0 1000000000 0 0 7
765 0 0 1000000000 0 0 6
766 0 0 1000000000 0 0 9
767 0 0 1000000000 0 0 7
768 0 0 1000000000 0 0 8
769 0 0 1000000000 0 0 10
770 0 0 1000000000 0 0 7
771 0 0 1000000000 0 8 0
772 0 0 1000000000 0 0 9
773 0 0 1000000000 0 0 6
774 0 0 1000000000 0 0 6
775 0 0 1000000000 0 0 8
776 0 0 1000000000 0 0 8
777 0 0 1000000000 0 0 10
778 0 0 1000000000 0 0 9
779 0 0 1000000000 0 0 7
780 0 0 1000000000 0 0 5
781 0 0 1000000000 0 5 0
782 0 0 1000000000 0 0 8
783 0 0 1000000000 0 0 10
784 0 0 1000000000 0 0 10
785 0 0 1000000000 0 0 8
786 0 0 1000000000 0 0 8
787 0 0 1000000000 0 0 7
788 0 0 1000000000 0 0 10
789 0 0 1000000000 0 0 5
790 0 0 1000000000 0 0 9
791 0 0 1000000000 0 8 0
792 0 0 1000000000 0 0 5
793 0 0 1000000000 0 0 6
794 0 0 1000000000 0 0 7
795 0 0 1000000000 0 0 7
796 0 0 1000000000 0 0 5
797 0 0 1000000000 0 0 10
798 0 0 1000000000 0 0 8
799 0 0 1000000000 0 0 9
800 0 0 1000000000 0 0 9
801 0 0 1000000000 0 8 0
802 0 0 1000000000 0 0 8
803 0 0 1000000000 0 0 7
804 0 0 1000000000 0 0 9
805 0 0 1000000000 0 0 7
806 0 0 1000000000 0 0 10
807 0 0 1000000000 0 0 8
808 0 0 1000000000 0 0 6
809 0 0 1000000000 0 0 10
810 0 0 1000000000 0 0 8
811 0 0 1000000000 0 5 0
812 0 0 1000000000 0 0 6
813 0 0 1000000000 0 0 8
814 0 0 1000000000 0 0 8
815 0 0 1000000000 0 0 5
816 0 0 1000000000 0 0 5
817 0 0 1000000000 0 0 8
818 0 0 1000000000 0 0 7
819 0 0 1000000000 0 0 9
820 0 0 1000000000 0 0 10
821 0 0 1000000000 0 8 0
822 0 0 1000000000 0 0 5
823 0 0 1000000000 0 0 8
824 0 0 1000000000 0 0 9
825 0 0 1000000000 0 0 6
826 0 0 1000000000 0 0 8
827 0 0 1000000000 0 0 8
828 0 0 1000000000 0 0 10
829 0 0 1000000000 0 0 9
830 0 0 1000000000 0 0 5
831 0 0 1000000000 0 6 0
832 0 0 1000000000 0 0 5
833 0 0 1000000000 0 0 5
834 0 0 1000000000 0 0 7
835 0 0 1000000000 0 0 7
836 0 0 1000000000 0 0 6
837 0 0 1000000000 0 0 10
